(set-logic ALL)
(declare-fun f (Int Int) Bool)
(declare-fun g (Int Int) Bool)
(declare-fun j () Int)
(declare-fun k () Int)
(declare-fun n () Int)
(declare-fun lift_l () Int)
(declare-fun lift_nat_step$ (Int) Int)
(declare-fun lift_to_int$ (Int) Int)
(assert (< 0 n))
(assert (forall ((x Int) (lift_x0 Int)) (=> (>= lift_x0 0) (=> (f x (lift_to_int$ lift_x0)) (and (<= 1 x) (<= x n) (<= 0 (lift_to_int$ lift_x0)))))))
(assert (forall ((x1 Int) (x2 Int) (x3 Int)) (=> (and (f x1 x2) (f x1 x3)) (= x2 x3))))
(assert (forall ((x4 Int)) (=> (and (<= 1 x4) (<= x4 n)) (exists ((x5 Int)) (f x4 x5)))))
(assert (forall ((x6 Int) (x7 Int) (x8 Int)) (=> (and (f x7 x6) (f x8 x6)) (= x7 x8))))
(assert (forall ((lift_x9 Int) (lift_x10 Int)) (=> (and (>= lift_x9 0) (>= lift_x10 0)) (=> (g (lift_to_int$ lift_x9) (lift_to_int$ lift_x10)) (and (<= 0 (lift_to_int$ lift_x9)) (<= 0 (lift_to_int$ lift_x10)))))))
(assert (forall ((x11 Int) (lift_x12 Int)) (=> (>= lift_x12 0) (=> (g x11 (lift_to_int$ lift_x12)) (and (<= 1 x11) (<= x11 n) (<= 0 (lift_to_int$ lift_x12)))))))
(assert (forall ((x13 Int) (x14 Int) (x15 Int)) (=> (and (g x13 x14) (g x13 x15)) (= x14 x15))))
(assert (forall ((x16 Int)) (=> (and (<= 1 x16) (<= x16 n)) (exists ((x17 Int)) (g x16 x17)))))
(assert (forall ((x18 Int) (x19 Int) (x20 Int)) (=> (and (g x19 x18) (g x20 x18)) (= x19 x20))))
(assert (forall ((x21 Int)) (= (exists ((x22 Int)) (g x22 x21)) (exists ((x23 Int)) (f x23 x21)))))
(assert (<= 1 k))
(assert (<= k n))
(assert (forall ((i Int) (j0 Int)) (=> (and (<= 1 i) (<= i (- k 1)) (<= (+ i 1) j0) (<= j0 n)) (forall ((x24 Int) (x25 Int)) (=> (and (g i x25) (g j0 x24)) (< x25 x24))))))
(assert (<= 0 (lift_to_int$ lift_l)))
(assert (<= k j))
(assert (<= j n))
(assert (<= k (lift_to_int$ lift_l)))
(assert (<= (lift_to_int$ lift_l) j))
(assert (exists ((x26 Int)) (and (exists ((x27 Int)) (and (<= k x27) (<= x27 j) (g x27 x26))) (forall ((x28 Int)) (=> (exists ((x29 Int)) (and (<= k x29) (<= x29 j) (g x29 x28))) (<= x26 x28))) (g (lift_to_int$ (lift_to_int$ lift_l)) x26))))
(assert (exists ((x30 Int)) (g (lift_to_int$ (lift_to_int$ lift_l)) x30)))
(assert (forall ((x31 Int) (x32 Int) (x33 Int)) (=> (and (g x31 x32) (g x31 x33)) (= x32 x33))))
(assert (exists ((b Int)) (forall ((x34 Int)) (=> (exists ((x35 Int)) (and (<= k x35) (<= x35 j) (g x35 x34))) (<= b x34)))))
(assert (forall ((x36 Int) (x37 Int)) (=> (and (exists ((x38 Int)) (and (= x38 (+ j 1)) (g x38 x37))) (g (lift_to_int$ (lift_to_int$ lift_l)) x36)) (< x37 x36))))
(assert (exists ((x39 Int) (x40 Int)) (and (= x40 (+ j 1)) (g x40 x39))))
(assert (exists ((b0 Int)) (forall ((x41 Int)) (=> (exists ((x42 Int)) (and (<= k x42) (<= x42 (+ j 1)) (g x42 x41))) (<= b0 x41)))))
(assert (forall ((a Int) (b1 Int)) (=> (and (<= 1 a) (<= a n) (<= 1 b1) (<= b1 n) (not (= a b1))) (forall ((x43 Int) (x44 Int)) (= (or (and (g x43 x44) (not (or (exists ((x45 Int)) (and (= x43 a) (g b1 x45))) (exists ((x46 Int)) (and (= x43 b1) (g a x46)))))) (and (= x43 a) (g b1 x44) (not (exists ((x47 Int)) (and (= x43 b1) (g a x47))))) (and (= x43 b1) (g a x44))) (or (and (g x43 x44) (not (or (= x43 a) (= x43 b1)))) (and (= x43 a) (g b1 x44)) (and (= x43 b1) (g a x44))))))))
(assert (forall ((a0 Int) (b2 Int)) (=> (and (<= 1 a0) (<= a0 n) (<= 1 b2) (<= b2 n) (not (= a0 b2))) (and (forall ((x48 Int) (lift_x49 Int)) (=> (>= lift_x49 0) (=> (or (and (= x48 a0) (g b2 (lift_to_int$ lift_x49))) (and (= x48 b2) (g a0 (lift_to_int$ lift_x49)))) (and (<= 1 x48) (<= x48 n) (<= 0 (lift_to_int$ lift_x49)))))) (forall ((x50 Int) (x51 Int) (x52 Int)) (=> (and (or (and (= x50 a0) (g b2 x51)) (and (= x50 b2) (g a0 x51))) (or (and (= x50 a0) (g b2 x52)) (and (= x50 b2) (g a0 x52)))) (= x51 x52))) (forall ((x53 Int) (x54 Int) (x55 Int)) (=> (and (or (and (= x54 a0) (g b2 x53)) (and (= x54 b2) (g a0 x53))) (or (and (= x55 a0) (g b2 x53)) (and (= x55 b2) (g a0 x53)))) (= x54 x55)))))))
(assert (forall ((a1 Int) (b3 Int)) (=> (and (<= 1 a1) (<= a1 n) (<= 1 b3) (<= b3 n) (not (= a1 b3))) (and (forall ((x56 Int) (lift_x57 Int)) (=> (>= lift_x57 0) (=> (and (g x56 (lift_to_int$ lift_x57)) (not (or (= x56 a1) (= x56 b3)))) (and (<= 1 x56) (<= x56 n) (<= 0 (lift_to_int$ lift_x57)))))) (forall ((x58 Int) (x59 Int) (x60 Int)) (=> (and (g x58 x59) (not (or (= x58 a1) (= x58 b3))) (g x58 x60)) (= x59 x60))) (forall ((x61 Int) (x62 Int) (x63 Int)) (=> (and (g x62 x61) (not (or (= x62 a1) (= x62 b3))) (g x63 x61) (not (or (= x63 a1) (= x63 b3)))) (= x62 x63)))))))
(assert (forall ((a2 Int) (b4 Int)) (=> (and (<= 1 a2) (<= a2 n) (<= 1 b4) (<= b4 n) (not (= a2 b4))) (forall ((x64 Int)) (= (or (exists ((x65 Int)) (and (g x64 x65) (not (or (= x64 a2) (= x64 b4))))) (exists ((x66 Int)) (and (= x64 a2) (g b4 x66))) (exists ((x67 Int)) (and (= x64 b4) (g a2 x67)))) (and (<= 1 x64) (<= x64 n)))))))
(assert (forall ((a3 Int) (b5 Int)) (=> (and (<= 1 a3) (<= a3 n) (<= 1 b5) (<= b5 n) (not (= a3 b5))) (forall ((x68 Int)) (not (and (exists ((x69 Int)) (and (g x69 x68) (not (or (= x69 a3) (= x69 b5))))) (or (g b5 x68) (g a3 x68))))))))
(assert (not (forall ((x70 Int)) (not (and (exists ((x71 Int)) (g x70 x71)) (<= k x70) (<= x70 j))))))
(assert (not (= k n)))
(assert (not (= j n)))
(assert (not (forall ((x72 Int)) (not (and (exists ((x73 Int)) (g x72 x73)) (<= k x72) (<= x72 (+ j 1)))))))
(assert (not (exists ((x74 Int) (x75 Int)) (and (= x74 (+ j 1)) (exists ((x76 Int)) (and (<= k x76) (<= x76 (+ j 1)) (g x76 x75))) (forall ((x77 Int)) (=> (exists ((x78 Int)) (and (<= k x78) (<= x78 (+ j 1)) (g x78 x77))) (<= x75 x77))) (g x74 x75)))))
(assert (= (lift_to_int$ (lift_nat_step$ lift_l)) (lift_to_int$ lift_l)))
(assert true)
(assert (>= lift_l 0))
(assert (forall ((x0 Int)) (=> (>= x0 0) (>= (lift_nat_step$ x0) 0))))
(check-sat)
